SAT
12 -16 -100 -9 33 71 38 51 -67 -81 28 46 -6 43 66 1 -90 -86 -89 19 53 62 68 7 83 -26 63 80 -70 -47 -76 -84 60 -32 -34 5 42 23 -20 -92 91 -78 25 -52 87 39 50 -75 94 58 44 8 -31 -74 99 93 45 -24 -21 -65 -98 -73 -35 -13 97 41 59 29 -37 -36 -88 14 11 -79 -22 64 10 -69 18 77 85 55 -15 4 27 57 56 -54 -40 -96 -49 72 -61 -95 -2 -17 -48 82 3 30 0
